
******************************************************************************
This program contains Ipopt, a library for large-scale nonlinear optimization.
 Ipopt is released as open source code under the Eclipse Public License (EPL).
         For more information visit http://projects.coin-or.org/Ipopt

This version of Ipopt was compiled from source code available at
    https://github.com/IDAES/Ipopt as part of the Institute for the Design of
    Advanced Energy Systems Process Systems Engineering Framework (IDAES PSE
    Framework) Copyright (c) 2018-2019. See https://github.com/IDAES/idaes-pse.

This version of Ipopt was compiled using HSL, a collection of Fortran codes
    for large-scale scientific computation.  All technical papers, sales and
    publicity material resulting from use of the HSL codes within IPOPT must
    contain the following acknowledgement:
        HSL, a collection of Fortran codes for large-scale scientific
        computation. See http://www.hsl.rl.ac.uk.
******************************************************************************

This is Ipopt version 3.13.2, running with linear solver ma27.

Number of nonzeros in equality constraint Jacobian...:     1840
Number of nonzeros in inequality constraint Jacobian.:        0
Number of nonzeros in Lagrangian Hessian.............:     3296

Total number of variables............................:      640
                     variables with only lower bounds:      128
                variables with lower and upper bounds:      448
                     variables with only upper bounds:        0
Total number of equality constraints.................:      632
Total number of inequality constraints...............:        0
        inequality constraints with only lower bounds:        0
   inequality constraints with lower and upper bounds:        0
        inequality constraints with only upper bounds:        0

iter    objective    inf_pr   inf_du lg(mu)  ||d||  lg(rg) alpha_du alpha_pr  ls
   0  0.0000000e+00 2.41e+00 7.11e-15  -1.0 0.00e+00    -  0.00e+00 0.00e+00   0
   1  1.1335827e+01 4.32e-01 1.50e+03  -1.0 4.42e+04    -  5.95e-01 9.90e-01h  1
   2  1.1848356e+01 2.35e-02 3.61e+01  -1.0 2.80e+03    -  9.54e-01 9.90e-01h  1
   3  1.1694459e+01 2.80e-04 1.18e+02  -1.0 1.17e+03    -  9.89e-01 9.90e-01h  1
   4  1.1214154e+01 1.74e-04 4.10e+04  -1.0 4.61e+03    -  9.86e-01 9.90e-01H  1
   5  1.1211596e+01 4.66e-05 1.32e+04  -1.0 3.37e+02    -  9.90e-01 9.90e-01H  1
   6  1.1169150e+01 3.76e-05 3.40e+07  -2.5 3.27e+02    -  9.85e-01 9.97e-01H  1
   7  1.1165276e+01 6.00e-05 9.84e+11  -2.5 1.72e+03    -  1.00e+00 1.56e-02h  7
   8  1.1161251e+01 8.39e-05 1.97e+12  -2.5 1.80e+03    -  1.00e+00 1.56e-02h  7
   9  1.1159207e+01 8.87e-05 2.98e+12  -2.5 1.85e+03    -  1.00e+00 7.79e-03h  8
iter    objective    inf_pr   inf_du lg(mu)  ||d||  lg(rg) alpha_du alpha_pr  ls
  10  1.1157185e+01 9.33e-05 3.99e+12  -2.5 1.84e+03    -  1.00e+00 7.79e-03h  8
  11  1.1156684e+01 9.35e-05 5.02e+12  -2.5 1.83e+03    -  1.00e+00 1.95e-03h 10
  12  1.1051069e+01 2.26e-02 3.05e+12  -2.5 1.83e+03    -  1.00e+00 4.99e-01f  2
  13  1.1031489e+01 2.16e-02 3.86e+12  -2.5 9.19e+02    -  1.00e+00 2.49e-01h  3
  14  1.1024846e+01 1.99e-02 5.82e+12  -2.5 6.91e+02    -  1.00e+00 1.25e-01h  4
  15  1.1022060e+01 1.88e-02 8.45e+12  -2.5 6.06e+02    -  1.00e+00 6.23e-02h  5
  16  1.1020780e+01 1.83e-02 1.15e+13  -2.5 5.68e+02    -  1.00e+00 3.12e-02h  6
  17  1.0989393e+01 4.39e-02 4.24e+10  -2.5 5.51e+02    -  1.00e+00 9.97e-01w  1
In iteration 17, 32 Slacks too small, adjusting variable bounds
  18  1.0989205e+01 3.05e-03 3.51e+12  -2.5 5.09e+00    -  1.00e+00 9.97e-01w  1
  19  1.0989208e+01 1.56e-07 2.83e-08  -2.5 6.68e-02    -  1.00e+00 1.00e+00h  1
iter    objective    inf_pr   inf_du lg(mu)  ||d||  lg(rg) alpha_du alpha_pr  ls
  20  1.0973945e+01 2.28e+00 1.38e+12  -8.6 5.65e+02    -  9.35e-01 1.00e+00f  1
  21  1.5784495e+01 2.49e+00 1.07e+12  -8.6 6.47e+04    -  2.23e-01 2.15e-01h  3
  22  2.0323149e+01 2.07e+00 8.00e+11  -8.6 1.56e+05    -  2.56e-01 1.69e-01h  1
  23  6.8533350e+01 9.26e-01 7.99e+11  -8.6 6.06e+04    -  9.95e-04 9.38e-01h  1
In iteration 23, 32 Slacks too small, adjusting variable bounds
  24  6.8533342e+01 9.26e-01 1.44e+11  -8.6 4.85e+04  -4.0 8.19e-01 1.32e-07h  1
  25  6.8524993e+01 9.25e-01 9.05e+09  -8.6 4.86e+04  -4.5 9.37e-01 1.37e-04h  1
  26  3.2126694e+01 1.68e+00 7.43e+09  -8.6 5.96e+04  -5.0 1.79e-01 1.00e+00f  1
In iteration 26, 32 Slacks too small, adjusting variable bounds
  27  2.9279907e+01 1.24e+00 7.43e+09  -8.6 3.42e+04  -5.4 7.56e-10 2.60e-01f  1
  28  2.7767962e+01 6.25e-03 3.29e+08  -8.6 2.91e+04  -5.0 9.56e-01 1.00e+00f  1
  29  3.0051347e+01 3.17e-03 1.75e+08  -8.6 2.27e+04  -5.5 4.67e-01 5.00e-01h  2
iter    objective    inf_pr   inf_du lg(mu)  ||d||  lg(rg) alpha_du alpha_pr  ls
  30  3.0040543e+01 3.14e-03 1.30e+08  -8.6 6.45e+04  -6.0 2.59e-01 1.09e-02f  7
  31  3.0074047e+01 3.09e-03 5.17e+06  -8.6 6.02e+03  -3.7 9.60e-01 1.56e-02h  7
  32  3.0089046e+01 3.06e-03 4.18e+06  -8.6 5.28e+03  -3.3 1.91e-01 7.81e-03h  8
  33  3.0102586e+01 3.04e-03 4.18e+06  -8.6 5.54e+03  -2.9 4.81e-10 7.81e-03h  8
  34  3.0095294e+01 3.04e-03 4.18e+06  -8.6 1.66e+05  -3.4 4.35e-05 1.69e-04f 12
  35  2.6850412e+01 3.72e-01 2.50e+06  -8.6 5.19e+03  -2.9 4.04e-01 1.00e+00H  1
  36  2.7331250e+01 3.38e-01 3.53e+05  -8.6 1.27e+04  -3.4 1.00e+00 9.03e-02h  2
  37  2.7257710e+01 3.34e-01 3.48e+05  -8.6 3.04e+04  -3.9 1.00e+00 1.38e-02f  1
  38r 2.7257710e+01 3.34e-01 1.00e+03  -0.5 0.00e+00  -3.5 0.00e+00 1.70e-07R  2
  39r 2.7247471e+01 2.94e-01 1.00e+03  -0.5 4.05e+05    -  1.94e-11 3.35e-04f  1
iter    objective    inf_pr   inf_du lg(mu)  ||d||  lg(rg) alpha_du alpha_pr  ls
  40  2.6422086e+01 1.92e-01 1.33e+01  -8.6 2.12e+04    -  9.47e-01 5.00e-01f  2
  41  2.4944353e+01 1.02e+00 2.84e+01  -8.6 1.42e+04    -  8.67e-01 1.00e+00f  1
  42  1.6574278e+01 7.62e-01 3.79e+06  -8.6 7.26e+04    -  5.40e-01 3.28e-01F  1
  43  2.3456235e+01 1.57e-02 8.55e+06  -8.6 2.75e+04    -  2.42e-05 9.79e-01h  1
  44  2.3456070e+01 1.57e-02 8.33e+06  -8.6 4.14e+04    -  2.42e-02 7.91e-05f  1
  45  1.8583987e+01 2.65e-04 8.87e+06  -8.6 1.39e+04    -  1.90e-06 1.00e+00f  1
  46  1.8322244e+01 2.81e-05 8.22e+06  -8.6 2.32e+03    -  7.44e-02 1.00e+00f  1
  47  1.8338816e+01 5.54e-07 8.19e+06  -8.6 1.70e+02    -  3.92e-03 1.00e+00h  1
  48  1.7862933e+01 3.69e-04 8.16e+06  -8.6 3.49e+03    -  3.09e-03 1.00e+00f  1
  49  1.7734050e+01 1.98e-04 5.19e+06  -8.6 2.40e+03    -  3.64e-01 1.00e+00f  1
iter    objective    inf_pr   inf_du lg(mu)  ||d||  lg(rg) alpha_du alpha_pr  ls
  50  1.4908592e+01 1.53e-02 5.19e+06  -8.6 8.07e+03    -  1.22e-04 1.00e+00f  1
  51  1.3647965e+01 1.58e-02 1.91e+06  -8.6 6.12e+03    -  6.32e-01 1.00e+00f  1
  52  1.3117698e+01 5.32e-03 2.81e+05  -8.6 3.51e+03    -  8.53e-01 1.00e+00f  1
  53  1.3063343e+01 1.18e-03 9.54e+03  -8.6 1.08e+03    -  9.66e-01 1.00e+00h  1
  54  1.3060404e+01 2.03e-04 8.21e+01  -8.6 4.69e+02    -  9.91e-01 1.00e+00h  1
  55  1.3059955e+01 1.27e-05 8.76e-04  -8.6 1.27e+02    -  1.00e+00 1.00e+00h  1
  56  1.3059942e+01 1.12e-07 7.99e-06  -8.6 1.21e+01    -  1.00e+00 1.00e+00h  1
  57  1.3059942e+01 1.02e-11 7.08e-10  -8.6 1.14e-01    -  1.00e+00 1.00e+00h  1

Number of Iterations....: 57

                                   (scaled)                 (unscaled)
Objective...............:   1.3059941979131914e+01    1.3059941979131914e+01
Dual infeasibility......:   7.0811136147970639e-10    7.0811136147970639e-10
Constraint violation....:   1.0209610934452940e-11    1.0209610934452940e-11
Complementarity.........:   2.5172861998755231e-09    2.5172861998755231e-09
Overall NLP error.......:   1.0209610934452940e-11    2.5172861998755231e-09


Number of objective function evaluations             = 208
Number of objective gradient evaluations             = 58
Number of equality constraint evaluations            = 208
Number of inequality constraint evaluations          = 0
Number of equality constraint Jacobian evaluations   = 59
Number of inequality constraint Jacobian evaluations = 0
Number of Lagrangian Hessian evaluations             = 57
Total CPU secs in IPOPT (w/o function evaluations)   =      0.094
Total CPU secs in NLP function evaluations           =      2.113

EXIT: Optimal Solution Found.
